 C  H                                   
   1.00000000000000     
     9.0000000000000000    0.0000000000000000    0.0000000000000000
     0.0000000000000000    9.0000000000000000    0.0000000000000000
     0.0000000000000000    0.0000000000000000    9.0000000000000000
   C    H 
     2     4
Direct
  0.5729161923929861  0.4978028491275834  0.5141304021851895
  0.4260450835723078  0.4993133817043072  0.4950428505235103
  0.6365992694260877  0.5995790545555121  0.5221262339166612
  0.6345927326778532  0.3947644514814211  0.5218465334846657
  0.3642433316416478  0.6021864935732704  0.4867114620650118
  0.3623163404587693  0.3976608126848361  0.4864924530432325
 
  0.00000000E+00  0.00000000E+00  0.00000000E+00
  0.00000000E+00  0.00000000E+00  0.00000000E+00
  0.00000000E+00  0.00000000E+00  0.00000000E+00
  0.00000000E+00  0.00000000E+00  0.00000000E+00
  0.00000000E+00  0.00000000E+00  0.00000000E+00
  0.00000000E+00  0.00000000E+00  0.00000000E+00
