Fe 
 1.0000000000000000
    17.1782129936994963    0.0000000000000000    0.0000000000000012
     0.0000000000000030   17.1782129936994963    0.0000000000000012
     0.0000000000000000    0.0000000000000000   17.1782129936994963
 Fe 
 432
Cartesian
  0.0000000000000000  0.0000000000000000  0.0000000000000000
  1.4315177494749582  1.4315177494749580  1.4315177494749582
  0.0000000000000000 -0.0000000000000000  2.8630354989499160
  1.4315177494749582  1.4315177494749580  4.2945532484248741
  0.0000000000000000  0.0000000000000000  5.7260709978998321
  1.4315177494749582  1.4315177494749580  7.1575887473747901
  0.0000000000000005  2.8630354989499160  0.0000000000000002
  1.4315177494749587  4.2945532484248741  1.4315177494749585
  0.0000000000000005  2.8630354989499160  2.8630354989499160
  1.3777536274349245  4.5710457202198995  4.2688368680041897
 -0.1999999999999995  2.8630354989499160  5.7260709978998321
  1.4315177494749587  4.2945532484248741  7.1575887473747901
  0.0000000000000010  5.7260709978998321  0.0000000000000004
  1.4315177494749594  7.1575887473747901  1.4315177494749587
  0.0000000000000010  5.7260709978998321  2.8630354989499165
  1.4315177494749594  7.1575887473747901  4.2945532484248750
  0.0000000000000010  5.7260709978998321  5.7260709978998321
  1.4315177494749594  7.2575887473747898  7.2575887473747898
  2.8630354989499160  0.0000000000000000  0.0000000000000002
  4.2945532484248741  1.4315177494749580  1.4315177494749585
  2.8630354989499160  0.0000000000000000  2.8630354989499160
  4.2945532484248741  1.4315177494749580  4.2945532484248741
  2.8630354989499160  0.0000000000000000  5.7260709978998321
  4.2945532484248741  1.3315177494749579  7.1575887473747901
  2.8630354989499165  2.8630354989499160  0.0000000000000004
  4.2945532484248750  4.2945532484248741  1.4315177494749587
  2.8534127471075692  3.0038255666217903  2.8537856615497379
  4.2945532484248750  4.2945532484248741  4.2945532484248750
  2.7857132418801540  2.9655207310518601  5.7853841141781759
  4.2945532484248750  4.2945532484248741  7.1575887473747901
  2.8630354989499169  5.7260709978998321  0.0000000000000006
  4.2945532484248750  7.1575887473747901  1.4315177494749589
  2.8630354989499169  5.7260709978998321  2.8630354989499165
  4.2945532484248750  7.1575887473747901  4.2945532484248750
  2.8630354989499169  5.7260709978998321  5.7260709978998330
  4.2945532484248750  7.2575887473747898  7.1575887473747910
  5.7260709978998321  0.0000000000000000  0.0000000000000004
  7.2732335238728565  1.4303483853428764  1.5121309227926183
  5.7260709978998321  0.0000000000000000  2.8630354989499165
  7.1575887473747901  1.4315177494749580  4.2945532484248750
  5.7260709978998321  0.0000000000000000  5.7260709978998321
  7.1575887473747901  1.4315177494749580  7.1575887473747901
  5.7260709978998330  2.8630354989499160  0.0000000000000006
  7.1575887473747910  4.2945532484248741  1.4315177494749589
  5.6752293073862905  2.9846252970351839  2.9143291974645380
  7.1575887473747910  4.2945532484248741  4.2945532484248750
  5.7260709978998330  2.9630354989499161  5.6260709978998333
  7.1575887473747910  4.2945532484248741  7.1575887473747910
  5.7260709978998330  5.7260709978998321  0.0000000000000008
  7.1575887473747910  7.1575887473747901  1.4315177494749591
  5.7260709978998330  5.8260709978998317  2.8630354989499169
  7.1575887473747910  7.1575887473747901  4.2945532484248750
  5.6260709978998333  5.7260709978998321  5.9260709978998323
  7.1575887473747910  7.1575887473747901  7.1575887473747910
  0.0000000000000000  0.0000000000000000  8.5891064968497481
  1.4315177494749582  1.4315177494749580 10.0206242463247062
  0.0000000000000000 -0.0000000000000000 11.4521419957996642
  1.4315177494749582  1.4315177494749580 12.8836597452746222
  0.0000000000000000  0.0000000000000000 14.3151774947495802
  1.4315177494749582  1.4315177494749580 15.7466952442245383
  0.0000000000000005  2.8630354989499160  8.5891064968497481
  1.4315177494749587  4.2945532484248741 10.0206242463247062
  0.0000000000000005  2.8630354989499160 11.4521419957996642
  1.3777536274349245  4.5710457202198995 12.8579433648539379
 -0.1999999999999995  2.8630354989499160 14.3151774947495802
  1.4315177494749587  4.2945532484248741 15.7466952442245383
  0.0000000000000010  5.7260709978998321  8.5891064968497481
  1.4315177494749594  7.1575887473747901 10.0206242463247062
  0.0000000000000010  5.7260709978998321 11.4521419957996642
  1.4315177494749594  7.1575887473747901 12.8836597452746240
  0.0000000000000010  5.7260709978998321 14.3151774947495802
  1.4315177494749594  7.2575887473747898 15.8466952442245379
  2.8630354989499160  0.0000000000000000  8.5891064968497481
  4.2945532484248741  1.4315177494749580 10.0206242463247062
  2.8630354989499160  0.0000000000000000 11.4521419957996642
  4.2945532484248741  1.4315177494749580 12.8836597452746222
  2.8630354989499160  0.0000000000000000 14.3151774947495802
  4.2945532484248741  1.3315177494749579 15.7466952442245383
  2.8630354989499165  2.8630354989499160  8.5891064968497481
  4.2945532484248750  4.2945532484248741 10.0206242463247062
  2.8534127471075692  3.0038255666217903 11.4428921583994860
  4.2945532484248750  4.2945532484248741 12.8836597452746240
  2.7857132418801540  2.9655207310518601 14.3744906110279231
  4.2945532484248750  4.2945532484248741 15.7466952442245383
  2.8630354989499169  5.7260709978998321  8.5891064968497481
  4.2945532484248750  7.1575887473747901 10.0206242463247079
  2.8630354989499169  5.7260709978998321 11.4521419957996642
  4.2945532484248750  7.1575887473747901 12.8836597452746240
  2.8630354989499169  5.7260709978998321 14.3151774947495802
  4.2945532484248750  7.2575887473747898 15.7466952442245400
  5.7260709978998321  0.0000000000000000  8.5891064968497481
  7.2732335238728565  1.4303483853428764 10.1012374196423664
  5.7260709978998321  0.0000000000000000 11.4521419957996642
  7.1575887473747901  1.4315177494749580 12.8836597452746240
  5.7260709978998321  0.0000000000000000 14.3151774947495802
  7.1575887473747901  1.4315177494749580 15.7466952442245383
  5.7260709978998330  2.8630354989499160  8.5891064968497481
  7.1575887473747910  4.2945532484248741 10.0206242463247079
  5.6752293073862905  2.9846252970351839 11.5034356943142857
  7.1575887473747910  4.2945532484248741 12.8836597452746240
  5.7260709978998330  2.9630354989499161 14.2151774947495824
  7.1575887473747910  4.2945532484248741 15.7466952442245400
  5.7260709978998330  5.7260709978998321  8.5891064968497481
  7.1575887473747910  7.1575887473747901 10.0206242463247079
  5.7260709978998330  5.8260709978998317 11.4521419957996642
  7.1575887473747910  7.1575887473747901 12.8836597452746240
  5.6260709978998333  5.7260709978998321 14.5151774947495795
  7.1575887473747910  7.1575887473747901 15.7466952442245400
  0.0000000000000015  8.5891064968497481  0.0000000000000006
  1.4315177494749598 10.0206242463247062  1.4315177494749589
  0.0000000000000015  8.5891064968497481  2.8630354989499165
  1.4315177494749598 10.0206242463247062  4.2945532484248750
  0.0000000000000015  8.5891064968497481  5.7260709978998330
  1.4315177494749598 10.0206242463247062  7.1575887473747910
  0.0000000000000020 11.4521419957996642  0.0000000000000008
  1.4315177494749602 12.8836597452746222  1.4315177494749591
  0.0000000000000020 11.4521419957996642  2.8630354989499165
  1.3777536274349260 13.1601522170696477  4.2688368680041906
 -0.1999999999999980 11.4521419957996642  5.7260709978998330
  1.4315177494749602 12.8836597452746222  7.1575887473747910
  0.0000000000000025 14.3151774947495802  0.0000000000000010
  1.4315177494749609 15.7466952442245383  1.4315177494749594
  0.0000000000000025 14.3151774947495802  2.8630354989499169
  1.4315177494749609 15.7466952442245383  4.2945532484248758
  0.0000000000000025 14.3151774947495802  5.7260709978998330
  1.4315177494749609 15.8466952442245379  7.2575887473747906
  2.8630354989499174  8.5891064968497481  0.0000000000000008
  4.2945532484248758 10.0206242463247062  1.4315177494749591
  2.8630354989499174  8.5891064968497481  2.8630354989499165
  4.2945532484248758 10.0206242463247062  4.2945532484248750
  2.8630354989499174  8.5891064968497481  5.7260709978998330
  4.2945532484248758  9.9206242463247065  7.1575887473747910
  2.8630354989499178 11.4521419957996642  0.0000000000000010
  4.2945532484248767 12.8836597452746222  1.4315177494749594
  2.8534127471075705 11.5929320634715385  2.8537856615497383
  4.2945532484248767 12.8836597452746222  4.2945532484248758
  2.7857132418801553 11.5546272279016087  5.7853841141781768
  4.2945532484248767 12.8836597452746222  7.1575887473747910
  2.8630354989499183 14.3151774947495802  0.0000000000000012
  4.2945532484248767 15.7466952442245383  1.4315177494749596
  2.8630354989499183 14.3151774947495802  2.8630354989499169
  4.2945532484248767 15.7466952442245383  4.2945532484248758
  2.8630354989499183 14.3151774947495802  5.7260709978998339
  4.2945532484248767 15.8466952442245379  7.1575887473747919
  5.7260709978998339  8.5891064968497481  0.0000000000000010
  7.2732335238728583 10.0194548821926244  1.5121309227926190
  5.7260709978998339  8.5891064968497481  2.8630354989499169
  7.1575887473747919 10.0206242463247062  4.2945532484248758
  5.7260709978998339  8.5891064968497481  5.7260709978998330
  7.1575887473747919 10.0206242463247062  7.1575887473747910
  5.7260709978998348 11.4521419957996642  0.0000000000000012
  7.1575887473747928 12.8836597452746222  1.4315177494749596
  5.6752293073862923 11.5737317938849316  2.9143291974645384
  7.1575887473747928 12.8836597452746222  4.2945532484248758
  5.7260709978998348 11.5521419957996638  5.6260709978998342
  7.1575887473747928 12.8836597452746222  7.1575887473747919
  5.7260709978998348 14.3151774947495802  0.0000000000000014
  7.1575887473747928 15.7466952442245383  1.4315177494749598
  5.7260709978998348 14.4151774947495799  2.8630354989499174
  7.1575887473747928 15.7466952442245383  4.2945532484248758
  5.6260709978998351 14.3151774947495802  5.9260709978998332
  7.1575887473747928 15.7466952442245383  7.1575887473747919
  0.0000000000000015  8.5891064968497481  8.5891064968497481
  1.4315177494749598 10.0206242463247062 10.0206242463247062
  0.0000000000000015  8.5891064968497481 11.4521419957996642
  1.4315177494749598 10.0206242463247062 12.8836597452746222
  0.0000000000000015  8.5891064968497481 14.3151774947495802
  1.4315177494749598 10.0206242463247062 15.7466952442245383
  0.0000000000000020 11.4521419957996642  8.5891064968497481
  1.4315177494749602 12.8836597452746222 10.0206242463247062
  0.0000000000000020 11.4521419957996642 11.4521419957996642
  1.3777536274349260 13.1601522170696477 12.8579433648539379
 -0.1999999999999980 11.4521419957996642 14.3151774947495802
  1.4315177494749602 12.8836597452746222 15.7466952442245383
  0.0000000000000025 14.3151774947495802  8.5891064968497481
  1.4315177494749609 15.7466952442245383 10.0206242463247062
  0.0000000000000025 14.3151774947495802 11.4521419957996642
  1.4315177494749609 15.7466952442245383 12.8836597452746240
  0.0000000000000025 14.3151774947495802 14.3151774947495802
  1.4315177494749609 15.8466952442245379 15.8466952442245379
  2.8630354989499174  8.5891064968497481  8.5891064968497481
  4.2945532484248758 10.0206242463247062 10.0206242463247062
  2.8630354989499174  8.5891064968497481 11.4521419957996642
  4.2945532484248758 10.0206242463247062 12.8836597452746222
  2.8630354989499174  8.5891064968497481 14.3151774947495802
  4.2945532484248758  9.9206242463247065 15.7466952442245383
  2.8630354989499178 11.4521419957996642  8.5891064968497481
  4.2945532484248767 12.8836597452746222 10.0206242463247062
  2.8534127471075705 11.5929320634715385 11.4428921583994860
  4.2945532484248767 12.8836597452746222 12.8836597452746240
  2.7857132418801553 11.5546272279016087 14.3744906110279231
  4.2945532484248767 12.8836597452746222 15.7466952442245383
  2.8630354989499183 14.3151774947495802  8.5891064968497481
  4.2945532484248767 15.7466952442245383 10.0206242463247079
  2.8630354989499183 14.3151774947495802 11.4521419957996642
  4.2945532484248767 15.7466952442245383 12.8836597452746240
  2.8630354989499183 14.3151774947495802 14.3151774947495802
  4.2945532484248767 15.8466952442245379 15.7466952442245400
  5.7260709978998339  8.5891064968497481  8.5891064968497481
  7.2732335238728583 10.0194548821926244 10.1012374196423664
  5.7260709978998339  8.5891064968497481 11.4521419957996642
  7.1575887473747919 10.0206242463247062 12.8836597452746240
  5.7260709978998339  8.5891064968497481 14.3151774947495802
  7.1575887473747919 10.0206242463247062 15.7466952442245383
  5.7260709978998348 11.4521419957996642  8.5891064968497481
  7.1575887473747928 12.8836597452746222 10.0206242463247079
  5.6752293073862923 11.5737317938849316 11.5034356943142857
  7.1575887473747928 12.8836597452746222 12.8836597452746240
  5.7260709978998348 11.5521419957996638 14.2151774947495824
  7.1575887473747928 12.8836597452746222 15.7466952442245400
  5.7260709978998348 14.3151774947495802  8.5891064968497481
  7.1575887473747928 15.7466952442245383 10.0206242463247079
  5.7260709978998348 14.4151774947495799 11.4521419957996642
  7.1575887473747928 15.7466952442245383 12.8836597452746240
  5.6260709978998351 14.3151774947495802 14.5151774947495795
  7.1575887473747928 15.7466952442245383 15.7466952442245400
  8.5891064968497481  0.0000000000000000  0.0000000000000006
 10.0206242463247062  1.4315177494749580  1.4315177494749589
  8.5891064968497481 -0.0000000000000000  2.8630354989499165
 10.0206242463247062  1.4315177494749580  4.2945532484248750
  8.5891064968497481  0.0000000000000000  5.7260709978998330
 10.0206242463247062  1.4315177494749580  7.1575887473747910
  8.5891064968497481  2.8630354989499160  0.0000000000000008
 10.0206242463247062  4.2945532484248741  1.4315177494749591
  8.5891064968497481  2.8630354989499160  2.8630354989499165
  9.9668601242846719  4.5710457202198995  4.2688368680041906
  8.3891064968497489  2.8630354989499160  5.7260709978998330
 10.0206242463247062  4.2945532484248741  7.1575887473747910
  8.5891064968497499  5.7260709978998321  0.0000000000000010
 10.0206242463247079  7.1575887473747901  1.4315177494749594
  8.5891064968497499  5.7260709978998321  2.8630354989499169
 10.0206242463247079  7.1575887473747901  4.2945532484248758
  8.5891064968497499  5.7260709978998321  5.7260709978998330
 10.0206242463247079  7.2575887473747898  7.2575887473747906
 11.4521419957996642  0.0000000000000000  0.0000000000000008
 12.8836597452746222  1.4315177494749580  1.4315177494749591
 11.4521419957996642  0.0000000000000000  2.8630354989499165
 12.8836597452746222  1.4315177494749580  4.2945532484248750
 11.4521419957996642  0.0000000000000000  5.7260709978998330
 12.8836597452746222  1.3315177494749579  7.1575887473747910
 11.4521419957996642  2.8630354989499160  0.0000000000000010
 12.8836597452746240  4.2945532484248741  1.4315177494749594
 11.4425192439573173  3.0038255666217903  2.8537856615497383
 12.8836597452746240  4.2945532484248741  4.2945532484248758
 11.3748197387299026  2.9655207310518601  5.7853841141781768
 12.8836597452746240  4.2945532484248741  7.1575887473747910
 11.4521419957996642  5.7260709978998321  0.0000000000000012
 12.8836597452746240  7.1575887473747901  1.4315177494749596
 11.4521419957996642  5.7260709978998321  2.8630354989499169
 12.8836597452746240  7.1575887473747901  4.2945532484248758
 11.4521419957996642  5.7260709978998321  5.7260709978998339
 12.8836597452746240  7.2575887473747898  7.1575887473747919
 14.3151774947495802  0.0000000000000000  0.0000000000000010
 15.8623400207226055  1.4303483853428764  1.5121309227926190
 14.3151774947495802  0.0000000000000000  2.8630354989499169
 15.7466952442245383  1.4315177494749580  4.2945532484248758
 14.3151774947495802  0.0000000000000000  5.7260709978998330
 15.7466952442245383  1.4315177494749580  7.1575887473747910
 14.3151774947495802  2.8630354989499160  0.0000000000000012
 15.7466952442245400  4.2945532484248741  1.4315177494749596
 14.2643358042360386  2.9846252970351839  2.9143291974645384
 15.7466952442245400  4.2945532484248741  4.2945532484248758
 14.3151774947495802  2.9630354989499161  5.6260709978998342
 15.7466952442245400  4.2945532484248741  7.1575887473747919
 14.3151774947495802  5.7260709978998321  0.0000000000000014
 15.7466952442245400  7.1575887473747901  1.4315177494749598
 14.3151774947495802  5.8260709978998317  2.8630354989499174
 15.7466952442245400  7.1575887473747901  4.2945532484248758
 14.2151774947495824  5.7260709978998321  5.9260709978998332
 15.7466952442245400  7.1575887473747901  7.1575887473747919
  8.5891064968497481  0.0000000000000000  8.5891064968497481
 10.0206242463247062  1.4315177494749580 10.0206242463247062
  8.5891064968497481 -0.0000000000000000 11.4521419957996642
 10.0206242463247062  1.4315177494749580 12.8836597452746222
  8.5891064968497481  0.0000000000000000 14.3151774947495802
 10.0206242463247062  1.4315177494749580 15.7466952442245383
  8.5891064968497481  2.8630354989499160  8.5891064968497481
 10.0206242463247062  4.2945532484248741 10.0206242463247062
  8.5891064968497481  2.8630354989499160 11.4521419957996642
  9.9668601242846719  4.5710457202198995 12.8579433648539379
  8.3891064968497489  2.8630354989499160 14.3151774947495802
 10.0206242463247062  4.2945532484248741 15.7466952442245383
  8.5891064968497499  5.7260709978998321  8.5891064968497481
 10.0206242463247079  7.1575887473747901 10.0206242463247062
  8.5891064968497499  5.7260709978998321 11.4521419957996642
 10.0206242463247079  7.1575887473747901 12.8836597452746240
  8.5891064968497499  5.7260709978998321 14.3151774947495802
 10.0206242463247079  7.2575887473747898 15.8466952442245379
 11.4521419957996642  0.0000000000000000  8.5891064968497481
 12.8836597452746222  1.4315177494749580 10.0206242463247062
 11.4521419957996642  0.0000000000000000 11.4521419957996642
 12.8836597452746222  1.4315177494749580 12.8836597452746222
 11.4521419957996642  0.0000000000000000 14.3151774947495802
 12.8836597452746222  1.3315177494749579 15.7466952442245383
 11.4521419957996642  2.8630354989499160  8.5891064968497481
 12.8836597452746240  4.2945532484248741 10.0206242463247062
 11.4425192439573173  3.0038255666217903 11.4428921583994860
 12.8836597452746240  4.2945532484248741 12.8836597452746240
 11.3748197387299026  2.9655207310518601 14.3744906110279231
 12.8836597452746240  4.2945532484248741 15.7466952442245383
 11.4521419957996642  5.7260709978998321  8.5891064968497481
 12.8836597452746240  7.1575887473747901 10.0206242463247079
 11.4521419957996642  5.7260709978998321 11.4521419957996642
 12.8836597452746240  7.1575887473747901 12.8836597452746240
 11.4521419957996642  5.7260709978998321 14.3151774947495802
 12.8836597452746240  7.2575887473747898 15.7466952442245400
 14.3151774947495802  0.0000000000000000  8.5891064968497481
 15.8623400207226055  1.4303483853428764 10.1012374196423664
 14.3151774947495802  0.0000000000000000 11.4521419957996642
 15.7466952442245383  1.4315177494749580 12.8836597452746240
 14.3151774947495802  0.0000000000000000 14.3151774947495802
 15.7466952442245383  1.4315177494749580 15.7466952442245383
 14.3151774947495802  2.8630354989499160  8.5891064968497481
 15.7466952442245400  4.2945532484248741 10.0206242463247079
 14.2643358042360386  2.9846252970351839 11.5034356943142857
 15.7466952442245400  4.2945532484248741 12.8836597452746240
 14.3151774947495802  2.9630354989499161 14.2151774947495824
 15.7466952442245400  4.2945532484248741 15.7466952442245400
 14.3151774947495802  5.7260709978998321  8.5891064968497481
 15.7466952442245400  7.1575887473747901 10.0206242463247079
 14.3151774947495802  5.8260709978998317 11.4521419957996642
 15.7466952442245400  7.1575887473747901 12.8836597452746240
 14.2151774947495824  5.7260709978998321 14.5151774947495795
 15.7466952442245400  7.1575887473747901 15.7466952442245400
  8.5891064968497499  8.5891064968497481  0.0000000000000012
 10.0206242463247079 10.0206242463247062  1.4315177494749594
  8.5891064968497499  8.5891064968497481  2.8630354989499174
 10.0206242463247079 10.0206242463247062  4.2945532484248750
  8.5891064968497499  8.5891064968497481  5.7260709978998330
 10.0206242463247079 10.0206242463247062  7.1575887473747910
  8.5891064968497499 11.4521419957996642  0.0000000000000014
 10.0206242463247079 12.8836597452746222  1.4315177494749596
  8.5891064968497499 11.4521419957996642  2.8630354989499174
  9.9668601242846737 13.1601522170696477  4.2688368680041906
  8.3891064968497506 11.4521419957996642  5.7260709978998330
 10.0206242463247079 12.8836597452746222  7.1575887473747910
  8.5891064968497517 14.3151774947495802  0.0000000000000016
 10.0206242463247097 15.7466952442245383  1.4315177494749598
  8.5891064968497517 14.3151774947495802  2.8630354989499178
 10.0206242463247097 15.7466952442245383  4.2945532484248758
  8.5891064968497517 14.3151774947495802  5.7260709978998330
 10.0206242463247097 15.8466952442245379  7.2575887473747906
 11.4521419957996660  8.5891064968497481  0.0000000000000014
 12.8836597452746240 10.0206242463247062  1.4315177494749596
 11.4521419957996660  8.5891064968497481  2.8630354989499174
 12.8836597452746240 10.0206242463247062  4.2945532484248750
 11.4521419957996660  8.5891064968497481  5.7260709978998330
 12.8836597452746240  9.9206242463247065  7.1575887473747910
 11.4521419957996660 11.4521419957996642  0.0000000000000016
 12.8836597452746240 12.8836597452746222  1.4315177494749598
 11.4425192439573191 11.5929320634715385  2.8537856615497392
 12.8836597452746240 12.8836597452746222  4.2945532484248758
 11.3748197387299044 11.5546272279016087  5.7853841141781768
 12.8836597452746240 12.8836597452746222  7.1575887473747910
 11.4521419957996677 14.3151774947495802  0.0000000000000018
 12.8836597452746240 15.7466952442245383  1.4315177494749600
 11.4521419957996677 14.3151774947495802  2.8630354989499178
 12.8836597452746240 15.7466952442245383  4.2945532484248758
 11.4521419957996677 14.3151774947495802  5.7260709978998339
 12.8836597452746240 15.8466952442245379  7.1575887473747919
 14.3151774947495820  8.5891064968497481  0.0000000000000016
 15.8623400207226055 10.0194548821926244  1.5121309227926194
 14.3151774947495820  8.5891064968497481  2.8630354989499178
 15.7466952442245400 10.0206242463247062  4.2945532484248758
 14.3151774947495820  8.5891064968497481  5.7260709978998330
 15.7466952442245400 10.0206242463247062  7.1575887473747910
 14.3151774947495838 11.4521419957996642  0.0000000000000018
 15.7466952442245400 12.8836597452746222  1.4315177494749600
 14.2643358042360404 11.5737317938849316  2.9143291974645393
 15.7466952442245400 12.8836597452746222  4.2945532484248758
 14.3151774947495838 11.5521419957996638  5.6260709978998342
 15.7466952442245400 12.8836597452746222  7.1575887473747919
 14.3151774947495838 14.3151774947495802  0.0000000000000020
 15.7466952442245400 15.7466952442245383  1.4315177494749602
 14.3151774947495838 14.4151774947495799  2.8630354989499183
 15.7466952442245400 15.7466952442245383  4.2945532484248758
 14.2151774947495824 14.3151774947495802  5.9260709978998332
 15.7466952442245400 15.7466952442245383  7.1575887473747919
  8.5891064968497499  8.5891064968497481  8.5891064968497499
 10.0206242463247079 10.0206242463247062 10.0206242463247079
  8.5891064968497499  8.5891064968497481 11.4521419957996660
 10.0206242463247079 10.0206242463247062 12.8836597452746240
  8.5891064968497499  8.5891064968497481 14.3151774947495820
 10.0206242463247079 10.0206242463247062 15.7466952442245400
  8.5891064968497499 11.4521419957996642  8.5891064968497499
 10.0206242463247079 12.8836597452746222 10.0206242463247079
  8.5891064968497499 11.4521419957996642 11.4521419957996660
  9.9668601242846737 13.1601522170696477 12.8579433648539396
  8.3891064968497506 11.4521419957996642 14.3151774947495820
 10.0206242463247079 12.8836597452746222 15.7466952442245400
  8.5891064968497517 14.3151774947495802  8.5891064968497499
 10.0206242463247097 15.7466952442245383 10.0206242463247079
  8.5891064968497517 14.3151774947495802 11.4521419957996660
 10.0206242463247097 15.7466952442245383 12.8836597452746240
  8.5891064968497517 14.3151774947495802 14.3151774947495820
 10.0206242463247097 15.8466952442245379 15.8466952442245397
 11.4521419957996660  8.5891064968497481  8.5891064968497499
 12.8836597452746240 10.0206242463247062 10.0206242463247079
 11.4521419957996660  8.5891064968497481 11.4521419957996660
 12.8836597452746240 10.0206242463247062 12.8836597452746240
 11.4521419957996660  8.5891064968497481 14.3151774947495820
 12.8836597452746240  9.9206242463247065 15.7466952442245400
 11.4521419957996660 11.4521419957996642  8.5891064968497499
 12.8836597452746240 12.8836597452746222 10.0206242463247079
 11.4425192439573191 11.5929320634715385 11.4428921583994878
 12.8836597452746240 12.8836597452746222 12.8836597452746240
 11.3748197387299044 11.5546272279016087 14.3744906110279267
 12.8836597452746240 12.8836597452746222 15.7466952442245400
 11.4521419957996677 14.3151774947495802  8.5891064968497499
 12.8836597452746240 15.7466952442245383 10.0206242463247079
 11.4521419957996677 14.3151774947495802 11.4521419957996660
 12.8836597452746240 15.7466952442245383 12.8836597452746240
 11.4521419957996677 14.3151774947495802 14.3151774947495838
 12.8836597452746240 15.8466952442245379 15.7466952442245400
 14.3151774947495820  8.5891064968497481  8.5891064968497499
 15.8623400207226055 10.0194548821926244 10.1012374196423682
 14.3151774947495820  8.5891064968497481 11.4521419957996660
 15.7466952442245400 10.0206242463247062 12.8836597452746240
 14.3151774947495820  8.5891064968497481 14.3151774947495820
 15.7466952442245400 10.0206242463247062 15.7466952442245400
 14.3151774947495838 11.4521419957996642  8.5891064968497499
 15.7466952442245400 12.8836597452746222 10.0206242463247079
 14.2643358042360404 11.5737317938849316 11.5034356943142875
 15.7466952442245400 12.8836597452746222 12.8836597452746240
 14.3151774947495838 11.5521419957996638 14.2151774947495824
 15.7466952442245400 12.8836597452746222 15.7466952442245400
 14.3151774947495838 14.3151774947495802  8.5891064968497499
 15.7466952442245400 15.7466952442245383 10.0206242463247097
 14.3151774947495838 14.4151774947495799 11.4521419957996677
 15.7466952442245400 15.7466952442245383 12.8836597452746240
 14.2151774947495824 14.3151774947495802 14.5151774947495831
 15.7466952442245400 15.7466952442245383 15.7466952442245400
