Si232
1.0
  17.6455102100000012    0.0000000000000000    0.0000000000000011
   0.0000000000000028   17.6455102100000012    0.0000000000000011
   0.0000000000000000    0.0000000000000000   17.6455102100000012
Si
232
direct
   0.2625205900000000    0.8459061000000000    0.4181326400000000 Si
   0.7374794099999999    0.3459061000000001    0.0818673600000000 Si
   0.2374794100000000    0.1540939000000000    0.9181326400000001 Si
   0.7625205900000001    0.6540939000000000    0.5818673599999999 Si
   0.4181326400000000    0.2625205900000000    0.8459061000000000 Si
   0.0818673600000000    0.7374794099999999    0.3459061000000001 Si
   0.9181326400000001    0.2374794100000000    0.1540939000000000 Si
   0.5818673599999999    0.7625205900000001    0.6540939000000000 Si
   0.8459061000000000    0.4181326400000000    0.2625205900000000 Si
   0.3459061000000001    0.0818673600000000    0.7374794099999999 Si
   0.1540939000000000    0.9181326400000001    0.2374794100000000 Si
   0.6540939000000000    0.5818673599999999    0.7625205900000001 Si
   0.7374794099999999    0.1540939000000000    0.5818673599999999 Si
   0.2625205900000000    0.6540939000000000    0.9181326400000001 Si
   0.7625205900000001    0.8459061000000000    0.0818673600000000 Si
   0.2374794100000000    0.3459061000000001    0.4181326400000000 Si
   0.5818673599999999    0.7374794099999999    0.1540939000000000 Si
   0.9181326400000001    0.2625205900000000    0.6540939000000000 Si
   0.0818673600000000    0.7625205900000001    0.8459061000000000 Si
   0.4181326400000000    0.2374794100000000    0.3459061000000001 Si
   0.1540939000000000    0.5818673599999999    0.7374794099999999 Si
   0.6540939000000000    0.9181326400000001    0.2625205900000000 Si
   0.8459061000000000    0.0818673600000000    0.7625205900000001 Si
   0.3459061000000001    0.4181326400000000    0.2374794100000000 Si
   0.8940931400000000    0.8156739400000000    0.4042413400000000 Si
   0.1059068600000000    0.3156739399999999    0.0957586600000000 Si
   0.6059068600000000    0.1843260600000000    0.9042413400000000 Si
   0.3940931399999998    0.6843260600000000    0.5957586600000000 Si
   0.4042413400000000    0.8940931400000000    0.8156739400000000 Si
   0.0957586600000000    0.1059068600000000    0.3156739399999999 Si
   0.9042413400000000    0.6059068600000000    0.1843260600000000 Si
   0.5957586600000000    0.3940931399999998    0.6843260600000000 Si
   0.8156739400000000    0.4042413400000000    0.8940931400000000 Si
   0.3156739399999999    0.0957586600000000    0.1059068600000000 Si
   0.1843260600000000    0.9042413400000000    0.6059068600000000 Si
   0.6843260600000000    0.5957586600000000    0.3940931399999998 Si
   0.1059068600000000    0.1843260600000000    0.5957586600000000 Si
   0.8940931400000000    0.6843260600000000    0.9042413400000000 Si
   0.3940931399999998    0.8156739400000000    0.0957586600000000 Si
   0.6059068600000000    0.3156739399999999    0.4042413400000000 Si
   0.5957586600000000    0.1059068600000000    0.1843260600000000 Si
   0.9042413400000000    0.8940931400000000    0.6843260600000000 Si
   0.0957586600000000    0.3940931399999998    0.8156739400000000 Si
   0.4042413400000000    0.6059068600000000    0.3156739399999999 Si
   0.1843260600000000    0.5957586600000000    0.1059068600000000 Si
   0.6843260600000000    0.9042413400000000    0.8940931400000000 Si
   0.8156739400000000    0.0957586600000000    0.3940931399999998 Si
   0.3156739399999999    0.4042413400000000    0.6059068600000000 Si
   0.3919101600000000    0.8075860500000001    0.4015926700000000 Si
   0.6080898400000000    0.3075860500000001    0.0984073300000000 Si
   0.1080898400000000    0.1924139499999999    0.9015926700000000 Si
   0.8919101600000000    0.6924139499999999    0.5984073300000000 Si
   0.4015926700000000    0.3919101600000000    0.8075860500000001 Si
   0.0984073300000000    0.6080898400000000    0.3075860500000001 Si
   0.9015926700000000    0.1080898400000000    0.1924139499999999 Si
   0.5984073300000000    0.8919101600000000    0.6924139499999999 Si
   0.8075860500000001    0.4015926700000000    0.3919101600000000 Si
   0.3075860500000001    0.0984073300000000    0.6080898400000000 Si
   0.1924139499999999    0.9015926700000000    0.1080898400000000 Si
   0.6924139499999999    0.5984073300000000    0.8919101600000000 Si
   0.6080898400000000    0.1924139499999999    0.5984073300000000 Si
   0.3919101600000000    0.6924139499999999    0.9015926700000000 Si
   0.8919101600000000    0.8075860500000001    0.0984073300000000 Si
   0.1080898400000000    0.3075860500000001    0.4015926700000000 Si
   0.5984073300000000    0.6080898400000000    0.1924139499999999 Si
   0.9015926700000000    0.3919101600000000    0.6924139499999999 Si
   0.0984073300000000    0.8919101600000000    0.8075860500000001 Si
   0.4015926700000000    0.1080898400000000    0.3075860500000001 Si
   0.1924139499999999    0.5984073300000000    0.6080898400000000 Si
   0.6924139499999999    0.9015926700000000    0.3919101600000000 Si
   0.8075860500000001    0.0984073300000000    0.8919101600000000 Si
   0.3075860500000001    0.4015926700000000    0.1080898400000000 Si
   0.9732162500000000    0.8025785800000000    0.2967397500000000 Si
   0.0267837500000000    0.3025785800000000    0.2032602500000000 Si
   0.5267837500000000    0.1974214200000000    0.7967397500000000 Si
   0.4732162500000001    0.6974214200000000    0.7032602500000000 Si
   0.2967397500000000    0.9732162500000000    0.8025785800000000 Si
   0.2032602500000000    0.0267837500000000    0.3025785800000000 Si
   0.7967397500000000    0.5267837500000000    0.1974214200000000 Si
   0.7032602500000000    0.4732162500000001    0.6974214200000000 Si
   0.8025785800000000    0.2967397500000000    0.9732162500000000 Si
   0.3025785800000000    0.2032602500000000    0.0267837500000000 Si
   0.1974214200000000    0.7967397500000000    0.5267837500000000 Si
   0.6974214200000000    0.7032602500000000    0.4732162500000001 Si
   0.0267837500000000    0.1974214200000000    0.7032602500000000 Si
   0.9732162500000000    0.6974214200000000    0.7967397500000000 Si
   0.4732162500000001    0.8025785800000000    0.2032602500000000 Si
   0.5267837500000000    0.3025785800000000    0.2967397500000000 Si
   0.7032602500000000    0.0267837500000000    0.1974214200000000 Si
   0.7967397500000000    0.9732162500000000    0.6974214200000000 Si
   0.2032602500000000    0.4732162500000001    0.8025785800000000 Si
   0.2967397500000000    0.5267837500000000    0.3025785800000000 Si
   0.1974214200000000    0.7032602500000000    0.0267837500000000 Si
   0.6974214200000000    0.7967397500000000    0.9732162500000000 Si
   0.8025785800000000    0.2032602500000000    0.4732162500000001 Si
   0.3025785800000000    0.2967397500000000    0.5267837500000000 Si
   0.7635018600000000    0.7863224599999999    0.3897314500000000 Si
   0.2364981400000000    0.2863224600000001    0.1102685500000000 Si
   0.7364981400000000    0.2136775400000001    0.8897314500000000 Si
   0.2635018599999999    0.7136775400000001    0.6102685500000000 Si
   0.3897314500000000    0.7635018600000000    0.7863224599999999 Si
   0.1102685500000000    0.2364981400000000    0.2863224600000001 Si
   0.8897314500000000    0.7364981400000000    0.2136775400000001 Si
   0.6102685500000000    0.2635018599999999    0.7136775400000001 Si
   0.7863224599999999    0.3897314500000000    0.7635018600000000 Si
   0.2863224600000001    0.1102685500000000    0.2364981400000000 Si
   0.2136775400000001    0.8897314500000000    0.7364981400000000 Si
   0.7136775400000001    0.6102685500000000    0.2635018599999999 Si
   0.2364981400000000    0.2136775400000001    0.6102685500000000 Si
   0.7635018600000000    0.7136775400000001    0.8897314500000000 Si
   0.2635018599999999    0.7863224599999999    0.1102685500000000 Si
   0.7364981400000000    0.2863224600000001    0.3897314500000000 Si
   0.6102685500000000    0.2364981400000000    0.2136775400000001 Si
   0.8897314500000000    0.7635018600000000    0.7136775400000001 Si
   0.1102685500000000    0.2635018599999999    0.7863224599999999 Si
   0.3897314500000000    0.7364981400000000    0.2863224600000001 Si
   0.2136775400000001    0.6102685500000000    0.2364981400000000 Si
   0.7136775400000001    0.8897314500000000    0.7635018600000000 Si
   0.7863224599999999    0.1102685500000000    0.2635018599999999 Si
   0.2863224600000001    0.3897314500000000    0.7364981400000000 Si
   0.9588842000000000    0.7712840600000000    0.5131762600000001 Si
   0.0411158000000000    0.2712840600000002    0.9868237399999999 Si
   0.5411158000000000    0.2287159400000000    0.0131762600000001 Si
   0.4588842000000000    0.7287159400000000    0.4868237399999999 Si
   0.5131762600000001    0.9588842000000000    0.7712840600000000 Si
   0.9868237399999999    0.0411158000000000    0.2712840600000002 Si
   0.0131762600000001    0.5411158000000000    0.2287159400000000 Si
   0.4868237399999999    0.4588842000000000    0.7287159400000000 Si
   0.7712840600000000    0.5131762600000001    0.9588842000000000 Si
   0.2712840600000002    0.9868237399999999    0.0411158000000000 Si
   0.2287159400000000    0.0131762600000001    0.5411158000000000 Si
   0.7287159400000000    0.4868237399999999    0.4588842000000000 Si
   0.0411158000000000    0.2287159400000000    0.4868237399999999 Si
   0.9588842000000000    0.7287159400000000    0.0131762600000001 Si
   0.4588842000000000    0.7712840600000000    0.9868237399999999 Si
   0.5411158000000000    0.2712840600000002    0.5131762600000001 Si
   0.4868237399999999    0.0411158000000000    0.2287159400000000 Si
   0.0131762600000001    0.9588842000000000    0.7287159400000000 Si
   0.9868237399999999    0.4588842000000000    0.7712840600000000 Si
   0.5131762600000001    0.5411158000000000    0.2712840600000002 Si
   0.2287159400000000    0.4868237399999999    0.0411158000000000 Si
   0.7287159400000000    0.0131762600000001    0.9588842000000000 Si
   0.7712840600000000    0.9868237399999999    0.4588842000000000 Si
   0.2712840600000002    0.5131762600000001    0.5411158000000000 Si
   0.5832459200000000    0.7684087400000000    0.5184898500000000 Si
   0.4167540800000000    0.2684087399999999    0.9815101500000000 Si
   0.9167540800000000    0.2315912600000000    0.0184898499999999 Si
   0.0832459200000000    0.7315912600000000    0.4815101500000000 Si
   0.5184898500000000    0.5832459200000000    0.7684087400000000 Si
   0.9815101500000000    0.4167540800000000    0.2684087399999999 Si
   0.0184898499999999    0.9167540800000000    0.2315912600000000 Si
   0.4815101500000000    0.0832459200000000    0.7315912600000000 Si
   0.7684087400000000    0.5184898500000000    0.5832459200000000 Si
   0.2684087399999999    0.9815101500000000    0.4167540800000000 Si
   0.2315912600000000    0.0184898499999999    0.9167540800000000 Si
   0.7315912600000000    0.4815101500000000    0.0832459200000000 Si
   0.4167540800000000    0.2315912600000000    0.4815101500000000 Si
   0.5832459200000000    0.7315912600000000    0.0184898499999999 Si
   0.0832459200000000    0.7684087400000000    0.9815101500000000 Si
   0.9167540800000000    0.2684087399999999    0.5184898500000000 Si
   0.4815101500000000    0.4167540800000000    0.2315912600000000 Si
   0.0184898499999999    0.5832459200000000    0.7315912600000000 Si
   0.9815101500000000    0.0832459200000000    0.7684087400000000 Si
   0.5184898500000000    0.9167540800000000    0.2684087399999999 Si
   0.2315912600000000    0.4815101500000000    0.4167540800000000 Si
   0.7315912600000000    0.0184898499999999    0.5832459200000000 Si
   0.7684087400000000    0.9815101500000000    0.0832459200000000 Si
   0.2684087399999999    0.5184898500000000    0.9167540800000000 Si
   0.0842449800000000    0.6042148400000000    0.5266403500000000 Si
   0.9157550200000000    0.1042148400000000    0.9733596500000000 Si
   0.4157550200000000    0.3957851600000000    0.0266403500000001 Si
   0.5842449800000000    0.8957851600000000    0.4733596500000000 Si
   0.5266403500000000    0.0842449800000000    0.6042148400000000 Si
   0.9733596500000000    0.9157550200000000    0.1042148400000000 Si
   0.0266403500000001    0.4157550200000000    0.3957851600000000 Si
   0.4733596500000000    0.5842449800000000    0.8957851600000000 Si
   0.6042148400000000    0.5266403500000000    0.0842449800000000 Si
   0.1042148400000000    0.9733596500000000    0.9157550200000000 Si
   0.3957851600000000    0.0266403500000001    0.4157550200000000 Si
   0.8957851600000000    0.4733596500000000    0.5842449800000000 Si
   0.9157550200000000    0.3957851600000000    0.4733596500000000 Si
   0.0842449800000000    0.8957851600000000    0.0266403500000001 Si
   0.5842449800000000    0.6042148400000000    0.9733596500000000 Si
   0.4157550200000000    0.1042148400000000    0.5266403500000000 Si
   0.4733596500000000    0.9157550200000000    0.3957851600000000 Si
   0.0266403500000001    0.0842449800000000    0.8957851600000000 Si
   0.9733596500000000    0.5842449800000000    0.6042148400000000 Si
   0.5266403500000000    0.4157550200000000    0.1042148400000000 Si
   0.3957851600000000    0.4733596500000000    0.9157550200000000 Si
   0.8957851600000000    0.0266403500000001    0.0842449800000000 Si
   0.6042148400000000    0.9733596500000000    0.5842449800000000 Si
   0.1042148400000000    0.5266403500000000    0.4157550200000000 Si
   0.4553531600000000    0.6062858600000000    0.4373720600000000 Si
   0.5446468400000000    0.1062858599999998    0.0626279400000000 Si
   0.0446468400000000    0.3937141400000000    0.9373720600000000 Si
   0.9553531600000000    0.8937141400000000    0.5626279400000000 Si
   0.4373720600000000    0.4553531600000000    0.6062858600000000 Si
   0.0626279400000000    0.5446468400000000    0.1062858599999998 Si
   0.9373720600000000    0.0446468400000000    0.3937141400000000 Si
   0.5626279400000000    0.9553531600000000    0.8937141400000000 Si
   0.6062858600000000    0.4373720600000000    0.4553531600000000 Si
   0.1062858599999998    0.0626279400000000    0.5446468400000000 Si
   0.3937141400000000    0.9373720600000000    0.0446468400000000 Si
   0.8937141400000000    0.5626279400000000    0.9553531600000000 Si
   0.5446468400000000    0.3937141400000000    0.5626279400000000 Si
   0.4553531600000000    0.8937141400000000    0.9373720600000000 Si
   0.9553531600000000    0.6062858600000000    0.0626279400000000 Si
   0.0446468400000000    0.1062858599999998    0.4373720600000000 Si
   0.5626279400000000    0.5446468400000000    0.3937141400000000 Si
   0.9373720600000000    0.4553531600000000    0.8937141400000000 Si
   0.0626279400000000    0.9553531600000000    0.6062858600000000 Si
   0.4373720600000000    0.0446468400000000    0.1062858599999998 Si
   0.3937141400000000    0.5626279400000000    0.5446468400000000 Si
   0.8937141400000000    0.9373720600000000    0.4553531600000000 Si
   0.6062858600000000    0.0626279400000000    0.9553531600000000 Si
   0.1062858599999998    0.4373720600000000    0.0446468400000000 Si
   0.1896552300000001    0.8103447699999999    0.3103447699999999 Si
   0.8103447699999999    0.3103447699999999    0.1896552300000001 Si
   0.3103447699999999    0.1896552300000001    0.8103447699999999 Si
   0.6896552300000001    0.6896552300000001    0.6896552300000001 Si
   0.8103447699999999    0.1896552300000001    0.6896552300000001 Si
   0.1896552300000001    0.6896552300000001    0.8103447699999999 Si
   0.6896552300000001    0.8103447699999999    0.1896552300000001 Si
   0.3103447699999999    0.3103447699999999    0.3103447699999999 Si
   0.7660259199999999    0.7660259199999999    0.7660259199999999 Si
   0.2339740800000001    0.2660259199999999    0.7339740800000001 Si
   0.7339740800000001    0.2339740800000001    0.2660259199999999 Si
   0.2660259199999999    0.7339740800000001    0.2339740800000001 Si
   0.2339740800000001    0.2339740800000001    0.2339740800000001 Si
   0.7660259199999999    0.7339740800000001    0.2660259199999999 Si
   0.2660259199999999    0.7660259199999999    0.7339740800000001 Si
   0.7339740800000001    0.2660259199999999    0.7660259199999999 Si
