 C  H 
 1.0000000000000000
     9.0000000000000000    0.0000000000000000    0.0000000000000000
     0.0000000000000000    9.0000000000000000    0.0000000000000000
     0.0000000000000000    0.0000000000000000    9.0000000000000000
 C   H  
   2   4
Cartesian
  5.1887986234065648  4.4708071132867868  4.5800324962673198
  3.8000070048773988  4.5031273488718035  4.4323573091097348
  5.1847989567315649  5.4936791116201462  4.6502674954339991
  5.1847989567315649  3.4480151116201543  4.6502674954339991
  3.8060065048898988  5.4258993513717630  4.4621123103597169
  3.8060065048898988  3.5802353513717606  4.4621123103597169
